(set-logic QF_LIA)
(declare-fun x0 () Int)
(declare-fun x1 () Int)
(declare-fun x2 () Int)
(declare-fun x3 () Int)
(declare-fun x4 () Int)
(declare-fun x5 () Int)
(declare-fun x6 () Int)
(declare-fun x7 () Int)
(declare-fun x8 () Int)
(declare-fun x9 () Int)
(declare-fun A0 () Bool)
(declare-fun A1 () Bool)
(declare-fun A2 () Bool)
(declare-fun A3 () Bool)
(declare-fun A4 () Bool)
(declare-fun A5 () Bool)
(declare-fun A6 () Bool)
(declare-fun A7 () Bool)
(declare-fun A8 () Bool)
(declare-fun A9 () Bool)
(assert (let ((.def_0 (* 1 x3))) (let ((.def_1 (* 1 x2))) (let ((.def_2 (+ .def_1 .def_0))) (let ((.def_3 (< .def_2 1))) (let ((.def_4 (not A6))) (let ((.def_5 (or .def_4 .def_3))) (let ((.def_6 (not .def_5))) (let ((.def_7 (* (- 1) x1))) (let ((.def_8 (< .def_7 (- 1)))) (let ((.def_9 (* 1 x8))) (let ((.def_10 (+ .def_9 .def_0))) (let ((.def_11 (< .def_10 1))) (let ((.def_12 (or .def_11 .def_8))) (let ((.def_13 (and .def_12 .def_6))) (let ((.def_14 (not A9))) (let ((.def_15 (and A5 .def_14))) (let ((.def_16 (not A0))) (let ((.def_17 (or .def_16 A4))) (let ((.def_18 (not .def_17))) (let ((.def_19 (or .def_18 .def_15))) (let ((.def_20 (not .def_19))) (let ((.def_21 (or .def_20 .def_13))) (let ((.def_22 (* (- 1) x5))) (let ((.def_23 (< .def_22 1))) (let ((.def_24 (or A6 .def_23))) (let ((.def_25 (not .def_24))) (let ((.def_26 (and .def_16 A4))) (let ((.def_27 (not .def_26))) (let ((.def_28 (or .def_27 .def_25))) (let ((.def_29 (not .def_28))) (let ((.def_30 (* (- 1) x0))) (let ((.def_31 (< .def_30 1))) (let ((.def_32 (or .def_31 A8))) (let ((.def_33 (not .def_32))) (let ((.def_34 (not A1))) (let ((.def_35 (= .def_34 A3))) (let ((.def_36 (not .def_35))) (let ((.def_37 (= .def_36 .def_33))) (let ((.def_38 (and .def_37 .def_29))) (let ((.def_39 (and .def_38 .def_21))) (let ((.def_40 (not .def_39))) (let ((.def_41 (* 1 x1))) (let ((.def_42 (+ .def_41 .def_9))) (let ((.def_43 (< .def_42 (- 1)))) (let ((.def_44 (* (- 1) x7))) (let ((.def_45 (+ .def_9 .def_44))) (let ((.def_46 (< .def_45 1))) (let ((.def_47 (not .def_46))) (let ((.def_48 (= .def_47 .def_43))) (let ((.def_49 (not .def_48))) (let ((.def_50 (* 1 x6))) (let ((.def_51 (< .def_50 1))) (let ((.def_52 (* 1 x4))) (let ((.def_53 (+ .def_41 .def_52))) (let ((.def_54 (< .def_53 (- 1)))) (let ((.def_55 (not .def_54))) (let ((.def_56 (or .def_55 .def_51))) (let ((.def_57 (or .def_56 .def_49))) (let ((.def_58 (* (- 1) x9))) (let ((.def_59 (< .def_58 1))) (let ((.def_60 (and .def_59 A2))) (let ((.def_61 (< .def_58 (- 1)))) (let ((.def_62 (and .def_34 .def_61))) (let ((.def_63 (not .def_62))) (let ((.def_64 (= .def_63 .def_60))) (let ((.def_65 (not .def_64))) (let ((.def_66 (= .def_65 .def_57))) (let ((.def_67 (not .def_66))) (let ((.def_68 (+ .def_22 .def_1))) (let ((.def_69 (< .def_68 1))) (let ((.def_70 (and .def_69 A3))) (let ((.def_71 (not .def_70))) (let ((.def_72 (* 1 x0))) (let ((.def_73 (< .def_72 (- 1)))) (let ((.def_74 (not .def_73))) (let ((.def_75 (* (- 1) x8))) (let ((.def_76 (+ .def_75 .def_1))) (let ((.def_77 (< .def_76 1))) (let ((.def_78 (and .def_77 .def_74))) (let ((.def_79 (and .def_78 .def_71))) (let ((.def_80 (not .def_79))) (let ((.def_81 (* 1 x9))) (let ((.def_82 (+ .def_44 .def_81))) (let ((.def_83 (< .def_82 (- 1)))) (let ((.def_84 (not .def_83))) (let ((.def_85 (+ .def_7 .def_72))) (let ((.def_86 (< .def_85 1))) (let ((.def_87 (not .def_86))) (let ((.def_88 (or .def_87 .def_84))) (let ((.def_89 (+ .def_7 .def_30))) (let ((.def_90 (< .def_89 1))) (let ((.def_91 (not A8))) (let ((.def_92 (or .def_91 .def_90))) (let ((.def_93 (not .def_92))) (let ((.def_94 (or .def_93 .def_88))) (let ((.def_95 (not .def_94))) (let ((.def_96 (and .def_95 .def_80))) (let ((.def_97 (or .def_96 .def_67))) (let ((.def_98 (not .def_97))) (let ((.def_99 (or .def_98 .def_40))) (let ((.def_100 (* (- 1) x6))) (let ((.def_101 (* (- 1) x3))) (let ((.def_102 (+ .def_101 .def_100))) (let ((.def_103 (< .def_102 1))) (let ((.def_104 (< .def_1 (- 1)))) (let ((.def_105 (and .def_104 .def_103))) (let ((.def_106 (not .def_105))) (let ((.def_107 (* 1 x7))) (let ((.def_108 (+ .def_101 .def_107))) (let ((.def_109 (< .def_108 1))) (let ((.def_110 (or A7 .def_109))) (let ((.def_111 (or .def_110 .def_106))) (let ((.def_112 (+ .def_107 .def_9))) (let ((.def_113 (< .def_112 (- 1)))) (let ((.def_114 (or .def_113 A3))) (let ((.def_115 (< .def_100 (- 1)))) (let ((.def_116 (not .def_115))) (let ((.def_117 (< .def_50 (- 1)))) (let ((.def_118 (not .def_117))) (let ((.def_119 (= .def_118 .def_116))) (let ((.def_120 (not .def_119))) (let ((.def_121 (or .def_120 .def_114))) (let ((.def_122 (and .def_121 .def_111))) (let ((.def_123 (and A2 .def_8))) (let ((.def_124 (< .def_44 (- 1)))) (let ((.def_125 (not .def_124))) (let ((.def_126 (or A2 .def_125))) (let ((.def_127 (not .def_126))) (let ((.def_128 (and .def_127 .def_123))) (let ((.def_129 (+ .def_41 .def_72))) (let ((.def_130 (< .def_129 (- 1)))) (let ((.def_131 (not .def_130))) (let ((.def_132 (+ .def_58 .def_22))) (let ((.def_133 (< .def_132 1))) (let ((.def_134 (not .def_133))) (let ((.def_135 (and .def_134 .def_131))) (let ((.def_136 (not .def_135))) (let ((.def_137 (not A7))) (let ((.def_138 (< .def_9 1))) (let ((.def_139 (or .def_138 .def_137))) (let ((.def_140 (and .def_139 .def_136))) (let ((.def_141 (not .def_140))) (let ((.def_142 (or .def_141 .def_128))) (let ((.def_143 (= .def_142 .def_122))) (let ((.def_144 (= A9 .def_14))) (let ((.def_145 (not .def_144))) (let ((.def_146 (not .def_8))) (let ((.def_147 (< .def_72 1))) (let ((.def_148 (and .def_147 .def_146))) (let ((.def_149 (or .def_148 .def_145))) (let ((.def_150 (not .def_149))) (let ((.def_151 (not A5))) (let ((.def_152 (or .def_137 .def_151))) (let ((.def_153 (and A6 A1))) (let ((.def_154 (not .def_153))) (let ((.def_155 (or .def_154 .def_152))) (let ((.def_156 (or .def_155 .def_150))) (let ((.def_157 (* (- 1) x2))) (let ((.def_158 (< .def_157 1))) (let ((.def_159 (or .def_14 .def_158))) (let ((.def_160 (+ .def_75 .def_107))) (let ((.def_161 (< .def_160 (- 1)))) (let ((.def_162 (or .def_161 .def_137))) (let ((.def_163 (not .def_162))) (let ((.def_164 (or .def_163 .def_159))) (let ((.def_165 (not .def_164))) (let ((.def_166 (+ .def_72 .def_22))) (let ((.def_167 (< .def_166 1))) (let ((.def_168 (< .def_52 1))) (let ((.def_169 (or .def_168 .def_167))) (let ((.def_170 (not .def_61))) (let ((.def_171 (+ .def_22 .def_101))) (let ((.def_172 (< .def_171 1))) (let ((.def_173 (and .def_172 .def_170))) (let ((.def_174 (not .def_173))) (let ((.def_175 (and .def_174 .def_169))) (let ((.def_176 (and .def_175 .def_165))) (let ((.def_177 (not .def_176))) (let ((.def_178 (or .def_177 .def_156))) (let ((.def_179 (not .def_178))) (let ((.def_180 (or .def_179 .def_143))) (let ((.def_181 (and .def_180 .def_99))) (let ((.def_182 (not A3))) (let ((.def_183 (and .def_182 .def_137))) (let ((.def_184 (not .def_183))) (let ((.def_185 (* 1 x5))) (let ((.def_186 (+ .def_185 .def_44))) (let ((.def_187 (< .def_186 (- 1)))) (let ((.def_188 (or .def_187 .def_133))) (let ((.def_189 (and .def_188 .def_184))) (let ((.def_190 (+ .def_52 .def_81))) (let ((.def_191 (< .def_190 (- 1)))) (let ((.def_192 (and .def_191 A9))) (let ((.def_193 (not .def_192))) (let ((.def_194 (< .def_81 1))) (let ((.def_195 (not .def_194))) (let ((.def_196 (and .def_195 A9))) (let ((.def_197 (not .def_196))) (let ((.def_198 (and .def_197 .def_193))) (let ((.def_199 (not .def_198))) (let ((.def_200 (or .def_199 .def_189))) (let ((.def_201 (< .def_100 1))) (let ((.def_202 (and .def_201 A7))) (let ((.def_203 (+ .def_72 .def_7))) (let ((.def_204 (< .def_203 1))) (let ((.def_205 (or .def_16 .def_204))) (let ((.def_206 (not .def_205))) (let ((.def_207 (and .def_206 .def_202))) (let ((.def_208 (+ .def_1 .def_58))) (let ((.def_209 (< .def_208 (- 1)))) (let ((.def_210 (not .def_209))) (let ((.def_211 (or .def_210 A4))) (let ((.def_212 (+ .def_22 .def_75))) (let ((.def_213 (< .def_212 (- 1)))) (let ((.def_214 (not .def_213))) (let ((.def_215 (+ .def_157 .def_22))) (let ((.def_216 (< .def_215 1))) (let ((.def_217 (not .def_216))) (let ((.def_218 (or .def_217 .def_214))) (let ((.def_219 (and .def_218 .def_211))) (let ((.def_220 (not .def_219))) (let ((.def_221 (or .def_220 .def_207))) (let ((.def_222 (not .def_221))) (let ((.def_223 (or .def_222 .def_200))) (let ((.def_224 (not .def_168))) (let ((.def_225 (or .def_224 .def_16))) (let ((.def_226 (+ .def_22 .def_41))) (let ((.def_227 (< .def_226 1))) (let ((.def_228 (< .def_52 (- 1)))) (let ((.def_229 (and .def_228 .def_227))) (let ((.def_230 (not .def_229))) (let ((.def_231 (and .def_230 .def_225))) (let ((.def_232 (and .def_4 A4))) (let ((.def_233 (+ .def_185 .def_72))) (let ((.def_234 (< .def_233 (- 1)))) (let ((.def_235 (not .def_234))) (let ((.def_236 (not A2))) (let ((.def_237 (or .def_236 .def_235))) (let ((.def_238 (not .def_237))) (let ((.def_239 (or .def_238 .def_232))) (let ((.def_240 (not .def_239))) (let ((.def_241 (or .def_240 .def_231))) (let ((.def_242 (not .def_241))) (let ((.def_243 (< .def_185 (- 1)))) (let ((.def_244 (and .def_243 A6))) (let ((.def_245 (and A6 A3))) (let ((.def_246 (and .def_245 .def_244))) (let ((.def_247 (+ .def_41 .def_81))) (let ((.def_248 (< .def_247 (- 1)))) (let ((.def_249 (not .def_248))) (let ((.def_250 (< .def_41 1))) (let ((.def_251 (not .def_250))) (let ((.def_252 (and .def_251 .def_249))) (let ((.def_253 (not .def_252))) (let ((.def_254 (and A6 A6))) (let ((.def_255 (not .def_254))) (let ((.def_256 (or .def_255 .def_253))) (let ((.def_257 (not .def_256))) (let ((.def_258 (and .def_257 .def_246))) (let ((.def_259 (or .def_258 .def_242))) (let ((.def_260 (= .def_259 .def_223))) (let ((.def_261 (not .def_260))) (let ((.def_262 (or .def_4 .def_182))) (let ((.def_263 (= A4 .def_125))) (let ((.def_264 (not .def_263))) (let ((.def_265 (or .def_264 .def_262))) (let ((.def_266 (not .def_265))) (let ((.def_267 (* (- 1) x4))) (let ((.def_268 (+ .def_185 .def_267))) (let ((.def_269 (< .def_268 1))) (let ((.def_270 (not .def_269))) (let ((.def_271 (+ .def_44 .def_22))) (let ((.def_272 (< .def_271 (- 1)))) (let ((.def_273 (or .def_272 .def_270))) (let ((.def_274 (not .def_273))) (let ((.def_275 (+ .def_1 .def_30))) (let ((.def_276 (< .def_275 1))) (let ((.def_277 (and .def_236 .def_276))) (let ((.def_278 (or .def_277 .def_274))) (let ((.def_279 (not .def_278))) (let ((.def_280 (and .def_279 .def_266))) (let ((.def_281 (< .def_185 1))) (let ((.def_282 (and .def_4 .def_281))) (let ((.def_283 (not .def_282))) (let ((.def_284 (and .def_184 .def_283))) (let ((.def_285 (not .def_284))) (let ((.def_286 (and A9 .def_34))) (let ((.def_287 (+ .def_1 .def_41))) (let ((.def_288 (< .def_287 (- 1)))) (let ((.def_289 (not .def_288))) (let ((.def_290 (and .def_289 A6))) (let ((.def_291 (or .def_290 .def_286))) (let ((.def_292 (or .def_291 .def_285))) (let ((.def_293 (or .def_292 .def_280))) (let ((.def_294 (or .def_16 A9))) (let ((.def_295 (+ .def_9 .def_267))) (let ((.def_296 (< .def_295 1))) (let ((.def_297 (not .def_296))) (let ((.def_298 (or .def_151 .def_297))) (let ((.def_299 (and .def_298 .def_294))) (let ((.def_300 (not .def_299))) (let ((.def_301 (+ .def_50 .def_72))) (let ((.def_302 (< .def_301 1))) (let ((.def_303 (not .def_302))) (let ((.def_304 (and .def_303 .def_201))) (let ((.def_305 (not .def_304))) (let ((.def_306 (and .def_16 .def_4))) (let ((.def_307 (or .def_306 .def_305))) (let ((.def_308 (or .def_307 .def_300))) (let ((.def_309 (not A4))) (let ((.def_310 (or A2 .def_309))) (let ((.def_311 (= .def_224 A6))) (let ((.def_312 (and .def_311 .def_310))) (let ((.def_313 (< .def_267 (- 1)))) (let ((.def_314 (+ .def_22 .def_44))) (let ((.def_315 (< .def_314 (- 1)))) (let ((.def_316 (not .def_315))) (let ((.def_317 (or .def_316 .def_313))) (let ((.def_318 (+ .def_41 .def_30))) (let ((.def_319 (< .def_318 1))) (let ((.def_320 (+ .def_22 .def_52))) (let ((.def_321 (< .def_320 1))) (let ((.def_322 (not .def_321))) (let ((.def_323 (and .def_322 .def_319))) (let ((.def_324 (not .def_323))) (let ((.def_325 (or .def_324 .def_317))) (let ((.def_326 (= .def_325 .def_312))) (let ((.def_327 (not .def_326))) (let ((.def_328 (or .def_327 .def_308))) (let ((.def_329 (or .def_328 .def_293))) (let ((.def_330 (not .def_329))) (let ((.def_331 (and .def_330 .def_261))) (let ((.def_332 (not .def_331))) (let ((.def_333 (= .def_332 .def_181))) (let ((.def_334 (not .def_333))) (let ((.def_335 (<= x9 1))) (let ((.def_336 (<= 0 x9))) (let ((.def_337 (<= x8 1))) (let ((.def_338 (<= 0 x8))) (let ((.def_339 (<= x7 1))) (let ((.def_340 (<= 0 x7))) (let ((.def_341 (<= x6 1))) (let ((.def_342 (<= 0 x6))) (let ((.def_343 (<= x5 1))) (let ((.def_344 (<= 0 x5))) (let ((.def_345 (<= x4 1))) (let ((.def_346 (<= 0 x4))) (let ((.def_347 (<= x3 1))) (let ((.def_348 (<= 0 x3))) (let ((.def_349 (<= x2 1))) (let ((.def_350 (<= 0 x2))) (let ((.def_351 (<= x1 1))) (let ((.def_352 (<= 0 x1))) (let ((.def_353 (<= x0 1))) (let ((.def_354 (<= 0 x0))) (let ((.def_355 (and .def_354 .def_353 .def_352 .def_351 .def_350 .def_349 .def_348 .def_347 .def_346 .def_345 .def_344 .def_343 .def_342 .def_341 .def_340 .def_339 .def_338 .def_337 .def_336 .def_335 .def_334))) .def_355)))))))))))))))))))))))))))))))))))))))))))))))))))))))))))))))))))))))))))))))))))))))))))))))))))))))))))))))))))))))))))))))))))))))))))))))))))))))))))))))))))))))))))))))))))))))))))))))))))))))))))))))))))))))))))))))))))))))))))))))))))))))))))))))))))))))))))))))))))))))))))))))))))))))))))))))))))))))))))))))))))))))))))))))))))))))))))))))))))))
(check-sat)
